Version identifier: 22.1.0.0 | 2022-03-09 | 1a383f8ce
CPXPARAM_Threads                                 1
CPXPARAM_MIP_Strategy_VariableSelect             3
CPXPARAM_TimeLimit                               598.47133399799998
1 of 1 MIP starts provided solutions.
MIP start 'm1' defined initial solution with objective 189.0000.
Tried aggregator 1 time.
MIP Presolve eliminated 14 rows and 0 columns.
MIP Presolve modified 273 coefficients.
Reduced MIP has 1213 rows, 5200 columns, and 76896 nonzeros.
Reduced MIP has 5200 binaries, 0 generals, 0 SOSs, and 0 indicators.
Presolve time = 0.09 sec. (114.77 ticks)
Probing time = 0.02 sec. (15.17 ticks)
Tried aggregator 1 time.
Detecting symmetries...
MIP Presolve modified 14 coefficients.
Reduced MIP has 1213 rows, 5200 columns, and 77272 nonzeros.
Reduced MIP has 5200 binaries, 0 generals, 0 SOSs, and 0 indicators.
Presolve time = 0.07 sec. (86.53 ticks)
Probing time = 0.02 sec. (15.22 ticks)
Clique table members: 800.
MIP emphasis: balance optimality and feasibility.
MIP search method: dynamic search.
Parallel mode: none, using 1 thread.
Root relaxation solution time = 0.91 sec. (1058.21 ticks)

        Nodes                                         Cuts/
   Node  Left     Objective  IInf  Best Integer    Best Bound    ItCnt     Gap

*     0+    0                          189.0000    20100.0000              --- 
      0     0      200.0000   837      189.0000      200.0000     4183    5.82%
      0     0      200.0000   168      189.0000    Cliques: 1     4494    5.82%
      0     0      200.0000   614      189.0000      Cuts: 88     7715    5.82%
      0     0      200.0000   500      189.0000      Cuts: 12    12368    5.82%
*     0+    0                          190.0000      200.0000             5.26%
      0     0        cutoff            190.0000      200.0000    12368    5.26%
Detecting symmetries...
      0     2      200.0000   133      190.0000      200.0000    12368    5.26%
Elapsed time = 21.40 sec. (20989.43 ticks, tree = 0.01 MB, solutions = 2)
      1     3      200.0000   657      190.0000      200.0000    18681    5.26%
      2     4      200.0000   241      190.0000      200.0000    20934    5.26%
      3     5      200.0000   417      190.0000      200.0000    24658    5.26%
      4     6      200.0000   251      190.0000      200.0000    25207    5.26%
      5     7      200.0000   173      190.0000      200.0000    26895    5.26%
      6     8      200.0000   248      190.0000      200.0000    30876    5.26%
      7     9      200.0000   202      190.0000      200.0000    32015    5.26%
      8    10      200.0000   287      190.0000      200.0000    35392    5.26%
      9    11      200.0000   199      190.0000      200.0000    35409    5.26%
     10    12      200.0000   654      190.0000      200.0000    37862    5.26%
Elapsed time = 29.38 sec. (29599.81 ticks, tree = 0.07 MB, solutions = 2)
     12    14      200.0000   221      190.0000      200.0000    40255    5.26%
     14    16      200.0000   412      190.0000      200.0000    44561    5.26%
     16    18      200.0000   596      190.0000      200.0000    50016    5.26%
     18    20      200.0000   195      190.0000      200.0000    53988    5.26%
     20    22      200.0000   489      190.0000      200.0000    60403    5.26%
     22    24      200.0000   167      190.0000      200.0000    63242    5.26%
     23    25      200.0000   489      190.0000      200.0000    67341    5.26%
     26    28      200.0000   176      190.0000      200.0000    69640    5.26%
     27    29      200.0000   197      190.0000      200.0000    72402    5.26%
     30    32      200.0000   546      190.0000      200.0000    76713    5.26%
Elapsed time = 41.77 sec. (42842.23 ticks, tree = 0.24 MB, solutions = 2)
     32    34      200.0000   722      190.0000      200.0000    84030    5.26%
     33    35      200.0000   460      190.0000      200.0000    88226    5.26%
     36    38      200.0000   581      190.0000      200.0000    91080    5.26%
     37    39      200.0000   462      190.0000      200.0000    95507    5.26%
     40    42      200.0000   420      190.0000      200.0000    96898    5.26%
     43    45      200.0000   375      190.0000      200.0000    98984    5.26%
     46    48      200.0000   304      190.0000      200.0000   101431    5.26%
     49    51      200.0000   265      190.0000      200.0000   104137    5.26%
     52    54      200.0000   223      190.0000      200.0000   106876    5.26%
     55    57      200.0000   182      190.0000      200.0000   109373    5.26%
Elapsed time = 52.27 sec. (53589.76 ticks, tree = 0.53 MB, solutions = 2)
     58    60      200.0000   189      190.0000      200.0000   112426    5.26%
     61    63      200.0000   233      190.0000      200.0000   113178    5.26%
     64    66      200.0000   239      190.0000      200.0000   114393    5.26%
     69    70      200.0000   207      190.0000      200.0000   122280    5.26%
     74    75      199.9955   329      190.0000      200.0000   132002    5.26%
     80    81      200.0000   221      190.0000      200.0000   140946    5.26%
     86    87      200.0000   211      190.0000      200.0000   147624    5.26%
     91    92      200.0000   181      190.0000      200.0000   156080    5.26%
     97    97      198.3333   196      190.0000      200.0000   164588    5.26%
    105   104      199.8156   208      190.0000      200.0000   172035    5.26%
Elapsed time = 63.62 sec. (64104.26 ticks, tree = 1.09 MB, solutions = 2)
    113   112      199.9764   191      190.0000      200.0000   180000    5.26%
    121   120      200.0000   165      190.0000      200.0000   186434    5.26%
    128   127      200.0000   138      190.0000      200.0000   194190    5.26%
    136   135      200.0000   140      190.0000      200.0000   202700    5.26%
    142   140      200.0000   139      190.0000      200.0000   207185    5.26%
    150   148      199.7333   158      190.0000      200.0000   213362    5.26%
    159   156      199.1067   185      190.0000      200.0000   220881    5.26%
    168   165      199.3000   168      190.0000      200.0000   227611    5.26%
    180   169      198.8000   172      190.0000      200.0000   233008    5.26%
    191   171      200.0000   112      190.0000      200.0000   239938    5.26%
Elapsed time = 75.40 sec. (74390.74 ticks, tree = 1.88 MB, solutions = 2)
    198   176      199.5111   140      190.0000      200.0000   252961    5.26%
    211   180      199.0000   176      190.0000      200.0000   262969    5.26%
    221   182      200.0000   119      190.0000      200.0000   273597    5.26%
    230   191      199.8571   206      190.0000      200.0000   278695    5.26%
    240   201      199.8571   229      190.0000      200.0000   280077    5.26%
    251   211      199.8512   200      190.0000      200.0000   280916    5.26%
    261   221      199.8512   189      190.0000      200.0000   282428    5.26%
    271   231      199.7917   219      190.0000      200.0000   284005    5.26%
    281   241      199.7756   182      190.0000      200.0000   286015    5.26%
    292   252      199.7024   207      190.0000      200.0000   289448    5.26%
Elapsed time = 86.72 sec. (84358.35 ticks, tree = 2.83 MB, solutions = 2)
    301   261      199.7024   214      190.0000      200.0000   291215    5.26%
    312   272      199.7024   189      190.0000      200.0000   292907    5.26%
    322   282      199.3750   161      190.0000      200.0000   296914    5.26%
    332   292      199.3611   231      190.0000      200.0000   300036    5.26%
    340   300      199.3611   219      190.0000      200.0000   302152    5.26%
    349   308      198.7456   252      190.0000      200.0000   306636    5.26%
    359   314      198.6721   216      190.0000      200.0000   309791    5.26%
    369   320      198.6226   222      190.0000      200.0000   311418    5.26%
    380   329      198.5918   235      190.0000      200.0000   314092    5.26%
    392   339      198.5072   168      190.0000      200.0000   317789    5.26%
Elapsed time = 97.96 sec. (94455.72 ticks, tree = 3.86 MB, solutions = 2)
    402   346      198.5072   175      190.0000      200.0000   320439    5.26%
    414   356      198.4206   209      190.0000      200.0000   324073    5.26%
    429   368      198.3409   209      190.0000      200.0000   326845    5.26%
    442   379      198.2690   193      190.0000      200.0000   330550    5.26%
    457   393      198.2121   218      190.0000      200.0000   331774    5.26%
    470   403      198.1852   213      190.0000      200.0000   333111    5.26%
    481   414      198.1818   220      190.0000      200.0000   333937    5.26%
*   493+  419                          196.0000      200.0000             2.04%
    493   421      199.5500   198      196.0000      200.0000   336389    2.04%
    494   422      200.0000   124      196.0000      200.0000   338283    2.04%
    495   423      200.0000   133      196.0000      200.0000   339204    2.04%
Elapsed time = 111.19 sec. (106222.73 ticks, tree = 4.85 MB, solutions = 3)
    496   424      200.0000   123      196.0000      200.0000   340605    2.04%
    505   433      199.8833   202      196.0000      200.0000   344762    2.04%
    516   443      199.8000   208      196.0000      200.0000   346367    2.04%
    527   454      199.8000   195      196.0000      200.0000   346905    2.04%
    538   464      199.8000   199      196.0000      200.0000   347942    2.04%
    549   475      199.8000   193      196.0000      200.0000   348558    2.04%
    559   485      199.5424   195      196.0000      200.0000   351300    2.04%
    569   495      199.5161   204      196.0000      200.0000   354078    2.04%
    580   505      199.1940   230      196.0000      200.0000   355773    2.04%
    591   516      199.1940   226      196.0000      200.0000   356911    2.04%
Elapsed time = 127.17 sec. (120819.89 ticks, tree = 5.96 MB, solutions = 3)
    601   525      199.1940   213      196.0000      200.0000   358215    2.04%

Performing restart 1

Repeating presolve.
Tried aggregator 1 time.
MIP Presolve eliminated 0 rows and 196 columns.
MIP Presolve modified 14870 coefficients.
Reduced MIP has 1213 rows, 5004 columns, and 54132 nonzeros.
Reduced MIP has 5004 binaries, 0 generals, 0 SOSs, and 0 indicators.
Presolve time = 0.05 sec. (42.59 ticks)
Tried aggregator 1 time.
Reduced MIP has 1213 rows, 5004 columns, and 54132 nonzeros.
Reduced MIP has 5004 binaries, 0 generals, 0 SOSs, and 0 indicators.
Presolve time = 0.04 sec. (31.05 ticks)
Represolve time = 0.50 sec. (264.32 ticks)
    603     0      200.0000   820      196.0000   ZeroHalf: 1   362971    2.04%
    603     0      200.0000   163      196.0000   ZeroHalf: 2   364003    2.04%
    603     0      200.0000   368      196.0000       Cuts: 2   365890    2.04%
    603     0      200.0000   577      196.0000      Cuts: 15   368809    2.04%
    603     0      200.0000   479      196.0000      Cuts: 17   370167    2.04%
    603     0      200.0000   520      196.0000      Cuts: 14   371663    2.04%
    603     0      200.0000   859      196.0000      Cuts: 16   373529    2.04%
    603     2      200.0000    92      196.0000      200.0000   373529    2.04%
    604     3      200.0000   252      196.0000      200.0000   378905    2.04%
    606     5      200.0000   319      196.0000      200.0000   384665    2.04%
    609     8      200.0000   268      196.0000      200.0000   389620    2.04%
    611    10      200.0000   252      196.0000      200.0000   392725    2.04%
    613    12      200.0000   251      196.0000      200.0000   394164    2.04%
    614    13      200.0000   241      196.0000      200.0000   397995    2.04%
    615    14      200.0000   675      196.0000      200.0000   400381    2.04%
    621    20      200.0000   698      196.0000      200.0000   413621    2.04%
Elapsed time = 174.06 sec. (171007.44 ticks, tree = 0.13 MB, solutions = 3)
    633    32      200.0000   263      196.0000      200.0000   430981    2.04%
    640    39      200.0000   234      196.0000      200.0000   443704    2.04%
    644    43      200.0000   567      196.0000      200.0000   462537    2.04%
    650    49      200.0000   255      196.0000      200.0000   475512    2.04%
    653    52      200.0000   174      196.0000      200.0000   479945    2.04%
    659    58      200.0000   474      196.0000      200.0000   495202    2.04%
    665    64      200.0000   403      196.0000      200.0000   510036    2.04%
    672    71      200.0000   107      196.0000      200.0000   523942    2.04%
    678    77      200.0000   131      196.0000      200.0000   538791    2.04%
    683    82      200.0000   153      196.0000      200.0000   556614    2.04%
Elapsed time = 218.40 sec. (217833.48 ticks, tree = 0.57 MB, solutions = 3)
    689    87      200.0000   400      196.0000      200.0000   573841    2.04%
    695    93      200.0000   223      196.0000      200.0000   589668    2.04%
    705   101      199.4215   453      196.0000      200.0000   603238    2.04%
    714   107      199.0000   445      196.0000      200.0000   621784    2.04%
    721   112      199.0000   410      196.0000      200.0000   638171    2.04%
    727   118      199.0000   271      196.0000      200.0000   652339    2.04%
    737   127      198.7778   317      196.0000      200.0000   666361    2.04%
    748   137      199.0000   178      196.0000      200.0000   680918    2.04%
    760   145      198.0000   179      196.0000      200.0000   698269    2.04%
    786   167      197.0000   106      196.0000      200.0000   709719    2.04%
Elapsed time = 258.86 sec. (258626.99 ticks, tree = 1.40 MB, solutions = 3)
    803   178      197.0000    77      196.0000      200.0000   723083    2.04%
    831   188      200.0000   117      196.0000      200.0000   744510    2.04%
    837   192      199.0000   148      196.0000      200.0000   761049    2.04%
    845   198      198.5400   348      196.0000      200.0000   779203    2.04%
    856   206      199.0000   129      196.0000      200.0000   798167    2.04%
    868   213      199.0000   147      196.0000      200.0000   817913    2.04%
    881   221      198.0000   228      196.0000      200.0000   837639    2.04%
    897   234      198.0000   133      196.0000      200.0000   857755    2.04%
    915   243      197.0000   182      196.0000      200.0000   882812    2.04%
    935   253    infeasible            196.0000      200.0000   903642    2.04%
Elapsed time = 311.59 sec. (308109.10 ticks, tree = 1.58 MB, solutions = 3)
    957   255    infeasible            196.0000      200.0000   930698    2.04%
    977   263      197.0000   138      196.0000      200.0000   954608    2.04%
    999   267      200.0000   130      196.0000      200.0000   974523    2.04%
   1004   272      200.0000   336      196.0000      200.0000   985383    2.04%
   1012   280      200.0000   350      196.0000      200.0000   993613    2.04%
   1026   294      200.0000   229      196.0000      200.0000  1000882    2.04%
   1037   303      199.0000   236      196.0000      200.0000  1014479    2.04%
   1049   313      199.0000   207      196.0000      200.0000  1025237    2.04%
   1060   317      200.0000   368      196.0000      200.0000  1038926    2.04%
   1073   330      200.0000   250      196.0000      200.0000  1046223    2.04%
Elapsed time = 352.11 sec. (347499.15 ticks, tree = 1.74 MB, solutions = 3)
   1082   339      200.0000   265      196.0000      200.0000  1059695    2.04%
   1090   347      199.9808   302      196.0000      200.0000  1076755    2.04%
   1108   362      198.0000   191      196.0000      200.0000  1089732    2.04%
   1124   366      200.0000   422      196.0000      200.0000  1107223    2.04%
   1130   372      200.0000   287      196.0000      200.0000  1120771    2.04%
   1136   378      200.0000   326      196.0000      200.0000  1136808    2.04%
   1142   384      200.0000   257      196.0000      200.0000  1153924    2.04%
   1149   391      200.0000   276      196.0000      200.0000  1168019    2.04%
   1154   396      199.9776   376      196.0000      200.0000  1188284    2.04%
   1164   406      199.7821   340      196.0000      200.0000  1200082    2.04%
Elapsed time = 392.62 sec. (388347.34 ticks, tree = 2.01 MB, solutions = 3)
   1171   413      200.0000   174      196.0000      200.0000  1217349    2.04%
   1177   419      199.8431   318      196.0000      200.0000  1235084    2.04%
   1187   426      199.0000   272      196.0000      200.0000  1251071    2.04%
   1198   437      199.0000   177      196.0000      200.0000  1264930    2.04%
   1203   441      199.0000   120      196.0000      200.0000  1275542    2.04%
   1215   448      198.0000   246      196.0000      200.0000  1293270    2.04%
   1242   463    infeasible            196.0000      200.0000  1307666    2.04%
   1252   469      200.0000   460      196.0000      200.0000  1318511    2.04%
   1260   475      199.0000   182      196.0000      200.0000  1332266    2.04%
   1274   487      198.0000   138      196.0000      200.0000  1345469    2.04%
Elapsed time = 434.07 sec. (429241.84 ticks, tree = 2.77 MB, solutions = 3)
   1302   498      197.0000   101      196.0000      200.0000  1361477    2.04%
   1322   507      198.6667   186      196.0000      200.0000  1378076    2.04%
   1346   520      200.0000   345      196.0000      200.0000  1394255    2.04%
   1354   528      200.0000   250      196.0000      200.0000  1406421    2.04%
   1364   536      199.0000   221      196.0000      200.0000  1420894    2.04%
   1380   548    infeasible            196.0000      200.0000  1435568    2.04%
   1403   555      197.0000    80      196.0000      200.0000  1448400    2.04%
   1415   561      197.0000   161      196.0000      200.0000  1464778    2.04%
   1435   573      200.0000   133      196.0000      200.0000  1477764    2.04%
   1444   582      200.0000   192      196.0000      200.0000  1491864    2.04%
Elapsed time = 492.97 sec. (485482.01 ticks, tree = 3.91 MB, solutions = 3)
   1449   586      199.5260   525      196.0000      200.0000  1510762    2.04%
   1455   592      200.0000    90      196.0000      200.0000  1525385    2.04%
   1460   597      199.9867   480      196.0000      200.0000  1547082    2.04%
   1467   604      200.0000   327      196.0000      200.0000  1559783    2.04%
   1477   612      200.0000   205      196.0000      200.0000  1575862    2.04%
   1487   620      200.0000   260      196.0000      200.0000  1590854    2.04%
   1500   631      199.9939   304      196.0000      200.0000  1603850    2.04%
   1516   641      199.0000   214      196.0000      200.0000  1618553    2.04%
   1530   650      199.0000   106      196.0000      200.0000  1637579    2.04%
   1545   660      198.0000   241      196.0000      200.0000  1657520    2.04%
Elapsed time = 534.74 sec. (527512.07 ticks, tree = 4.83 MB, solutions = 3)
   1560   667      198.5556   292      196.0000      200.0000  1678334    2.04%
   1582   686      198.0000    86      196.0000      200.0000  1692603    2.04%
Starting limited solution polishing.
   1603   695      199.0000   371      196.0000      200.0000  1710617    2.04%
   1615   707      199.0000   279      196.0000      200.0000  1720366    2.04%
   1630   720      197.0000   229      196.0000      200.0000  1734327    2.04%
   1639   725      199.9733   465      196.0000      200.0000  1750519    2.04%
   1653   737      198.0000   141      196.0000      200.0000  1762022    2.04%
   1674   749    infeasible            196.0000      200.0000  1781288    2.04%
   1693   756      200.0000   129      196.0000      200.0000  1798250    2.04%
   1716   772      197.0000    87      196.0000      200.0000  1812024    2.04%
Elapsed time = 577.13 sec. (567807.55 ticks, tree = 6.14 MB, solutions = 3)
   1729   779      199.0000   153      196.0000      200.0000  1827644    2.04%
   1745   785    infeasible            196.0000      200.0000  1844302    2.04%
   1764   791    infeasible            196.0000      200.0000  1865266    2.04%
   1779   795      200.0000   114      196.0000      200.0000  1884174    2.04%
   1787   800      199.0000   239      196.0000      200.0000  1898402    2.04%

Clique cuts applied:  13
Zero-half cuts applied:  8
Gomory fractional cuts applied:  4

Root node processing (before b&c):
  Real time             =   21.30 sec. (20910.52 ticks)
Sequential b&c:
  Real time             =  577.17 sec. (567701.78 ticks)
                          ------------
Total (root+branch&cut) =  598.47 sec. (588612.30 ticks)
Primal:	196
Dual:	200
Status:	Feasible
Time:	598.46
Sequence:
	21
	9
	14
	10
	7
	16
	11
	14
	7
	21
	1
	20
	10
	14
	7
	23
	0
	18
	12
	14
	7
	21
	2
	18
	12
	14
	7
	10
	14
	9
	21
	1
	18
	10
	16
	8
	21
	1
	18
	12
	15
	7
	10
	16
	7
	21
	2
	18
	10
	14
	7
	23
	2
	18
	10
	14
	7
	13
	14
	7
	18
	3
	19
	7
	3
	18
	7
	4
	18
	7
	16
	10
	19
	1
	21
	7
	14
	13
	18
	1
	21
	7
	14
	12
	8
	14
	7
	23
	1
	18
	10
	15
	7
	21
	1
	18
	10
	14
	9
	10
	16
	7
	10
	15
	7
	18
	5
	7
	19
	5
	18
	7
	5
	8
	14
	5
	7
	18
	3
	9
	18
	3
	18
	7
	17
	7
	18
	3
	7
	20
	3
	18
	7
	5
	7
	19
	3
	18
	7
	3
	7
	18
	5
	18
	7
	16
	8
	12
	14
	7
	18
	6
	18
	7
	14
	10
	7
	16
	12
	18
	0
	21
	7
	14
	12
	14
	9
	10
	14
	7
	16
	8
	12
	14
	7
	12
	15
	7
	12
	14
	7
	21
	1
	20
	10
	14
	7
	21
	2
	18
	7
	16
	10
	19
	1
	21
